n_res = 4;
rc = [ 0, 0, 0, 0 ];
n_tasks = 30;
d = [ 6, 5, 3, 3, 8, 6, 8, 8, 6, 10, 8, 8, 6, 5, 2, 9, 7, 5, 4, 3, 10, 8, 6, 1, 8, 6, 5, 8, 1, 9 ];
rr = [| 0, 0, 0, 0, 0, 0, 0, 0, 0, 0, 0, 0, 0, 0, 0, 0, 0, 0, 0, 0, 0, 0, 0, 0, 0, 0, 0, 0, 0, 0
      | 0, 0, 0, 0, 0, 0, 0, 0, 0, 0, 0, 0, 0, 0, 0, 0, 0, 0, 0, 0, 0, 0, 0, 0, 0, 0, 0, 0, 0, 0
      | 0, 0, 0, 0, 0, 0, 0, 0, 0, 0, 0, 0, 0, 0, 0, 0, 0, 0, 0, 0, 0, 0, 0, 0, 0, 0, 0, 0, 0, 0
      | 0, 0, 0, 0, 0, 0, 0, 0, 0, 0, 0, 0, 0, 0, 0, 0, 0, 0, 0, 0, 0, 0, 0, 0, 0, 0, 0, 0, 0, 0 |];
suc = [ { 4, 7 },
       { 8, 10, 19 },
       { 8, 11 },
       { 5 },
       { 6, 21 },
       { 28 },
       { 13, 14, 24 },
       { 9, 12, 22 },
       { 18 },
       { 11, 20 },
       { 28 },
       { 15, 16 },
       { 17, 23 },
       { 17, 21 },
       { 17, 20 },
       { 23, 30 },
       { 27 },
       { 23 },
       { 26 },
       { 29 },
       { 27 },
       { 28 },
       { 25 },
       { 25 },
       { 26 },
       { 29 },
       { 30 },
       {  },
       {  },
       {  } ];
